Route #1: 29 57 63 31 40 13 54 85 21
Route #2: 101 77 83 2 17 69 105 64 94 82
Route #3: 96 43 93 28 103 53 100 45
Route #4: 72 34 74 11 99 49 97
Route #5: 44 51 60 87 76 15 5
Route #6: 14 58 88 91 36 8 48 67
Route #7: 7 75 84 9 12 104 1
Route #8: 52 92 102 24 90 26 62
Route #9: 22 33
Route #10: 78 19 27 37 79 71 46 66
Route #11: 86 18 41 10 16 20 56
Route #12: 35 73 32 3 23 42 30 89 59
Route #13: 55 98 4 70 6 81 50 39
Route #14: 25 47 61 80 65 38 95 68
Cost 26370
